param num_rows := 8;  
param num_cols := 8; 
param num_beams := 5; 
param critical_max := 2;
param tumor_min := 10;


# read in beam data into 3D array beam_values, beam m
read {m in BEAMS, i in ROWS, j in COLUMNS} beam_values[m,i,j] < beam_raw.txt;
# read in tumor data
read {i in ROWS, j in COLUMNS} tumor_values[i,j] < tumor_raw.txt;
# read in critical area data
read {i in ROWS, j in COLUMNS} critical_values[i,j] < critical_raw.txt;